50

100 28 202
96 23 309
94 28 208
93 1 347
91 9 225
91 4 404
91 26 196
88 18 325
84 14 347
83 25 371
80 4 307
78 23 174
78 19 377
76 19 413
75 4 251
74 14 403
72 6 268
72 15 200
70 18 312
65 14 243
61 11 442
60 5 441
56 7 178
52 2 238
51 16 446
51 16 353
48 3 430
46 2 279
45 3 295
38 9 406
38 2 400
37 9 450
37 11 387
37 8 204
36 8 217
35 6 276
35 10 377
32 10 206
32 6 173
31 10 392
30 8 303
29 4 222
29 4 234
28 8 449
27 7 362
27 4 419
23 7 413
23 1 273
22 2 413
21 6 399
